c SAT Generator for power-law distributed variable frequencies
c -g u -v 20 -c 91 -k 3 -p 2.750000 -b 3.200000 -f /home/schmidt/Devel/ni-kop-sat/data/ensemble/ruf20-91/ruf20-91-406 -u 1 -U 1 -s 3824389502
p cnf 20 91
6 10 11 0
9 -10 15 0
1 11 17 0
4 -5 -16 0
-2 15 -16 0
-6 15 20 0
8 -9 -18 0
1 9 -16 0
2 8 15 0
-5 9 -19 0
9 17 -19 0
10 12 20 0
-1 -13 15 0
13 -16 17 0
-8 9 -19 0
9 -10 -15 0
12 17 -19 0
5 10 -13 0
-11 13 -15 0
-3 4 20 0
-1 2 -20 0
-8 11 -15 0
-9 -13 -16 0
4 12 -17 0
1 -2 9 0
-1 -2 -18 0
3 -15 20 0
-7 -13 15 0
-3 7 15 0
5 18 -19 0
-3 -7 -8 0
1 -9 16 0
5 -18 -19 0
10 -11 -18 0
-6 8 9 0
-3 -5 18 0
5 13 -20 0
-4 -13 -19 0
-5 -15 -19 0
-1 3 -14 0
7 15 -19 0
-1 -9 -20 0
-3 -7 -9 0
-2 7 14 0
9 -15 -18 0
2 -7 17 0
-2 9 12 0
1 -8 9 0
-1 7 18 0
-5 -7 -11 0
-6 -9 10 0
-5 -7 -14 0
4 7 9 0
7 -10 13 0
7 16 -17 0
-5 12 -18 0
4 -5 11 0
4 -5 -6 0
14 -15 -16 0
3 9 -10 0
1 8 9 0
-5 -10 -19 0
1 6 13 0
1 -16 19 0
6 -11 -17 0
-5 6 13 0
14 15 -19 0
-5 10 18 0
2 4 -7 0
7 8 15 0
3 6 11 0
14 18 -20 0
-8 -9 13 0
-2 4 11 0
-13 -15 18 0
2 4 10 0
11 17 -19 0
-6 7 8 0
10 13 16 0
3 -9 13 0
-8 -11 18 0
13 14 -20 0
6 -9 12 0
6 -11 13 0
-8 12 -19 0
-7 10 -15 0
7 8 -19 0
8 -10 -11 0
5 -13 15 0
2 -16 -17 0
1 -2 -19 0
